
Gurobi 7.0.2 (win64, Python) logging started 06/13/17 16:51:45


Gurobi 7.0.2 (win64, Python) logging started 06/14/17 14:01:53


Gurobi 7.0.2 (win64, Python) logging started 06/14/17 14:04:42


Gurobi 7.0.2 (win64, Python) logging started 06/15/17 11:24:30


Gurobi 7.0.2 (win64, Python) logging started 06/15/17 11:30:05


Gurobi 7.0.2 (win64, Python) logging started 06/15/17 11:38:33


Gurobi 7.0.2 (win64, Python) logging started 06/15/17 12:09:02


Gurobi 7.0.2 (win64, Python) logging started 06/15/17 13:39:33


Gurobi 7.0.2 (win64, Python) logging started 06/15/17 13:58:52


Gurobi 7.0.2 (win64, Python) logging started 06/16/17 13:20:08


Gurobi 7.0.2 (win64, Python) logging started 06/16/17 17:45:46


Gurobi 7.0.2 (win64, Python) logging started 06/16/17 17:48:09


Gurobi 7.0.2 (win64, Python) logging started 06/16/17 17:55:12


Gurobi 7.0.2 (win64, Python) logging started 06/16/17 17:56:18


Gurobi 7.0.2 (win64, Python) logging started 06/16/17 17:57:10


Gurobi 7.0.2 (win64, Python) logging started 06/16/17 18:07:00

